solution status: optimal solution found
objective value:                                   39
shell_i_$_181                                       1 	(obj:0)
shell_j_$_186                                       1 	(obj:0)
shell_i_$_93                                        1 	(obj:0)
shell_i_$_179                                       1 	(obj:0)
shell_j_$_79                                        1 	(obj:0)
shell_j_$_91                                        1 	(obj:0)
shell_j_$_94                                        1 	(obj:0)
shell_j_$_185                                       1 	(obj:0)
shell_i_$_134                                       1 	(obj:0)
shell_i_$_167                                       1 	(obj:0)
shell_i_$_88                                        1 	(obj:0)
shell_j_$_97                                        1 	(obj:0)
shell_i_$_148                                       1 	(obj:0)
shell_i_$_151                                       1 	(obj:0)
shell_j_$_78                                        1 	(obj:0)
shell_i_$_75                                        1 	(obj:0)
shell_i_$_92                                        1 	(obj:0)
shell_j_$_96                                        1 	(obj:0)
shell_i_$_103                                       1 	(obj:0)
shell_j_$_164                                       1 	(obj:0)
shell_i_$_168                                       1 	(obj:0)
shell_i_$_180                                       1 	(obj:0)
shell_i_$_84                                        1 	(obj:0)
shell_i_$_169                                       1 	(obj:0)
shell_i_$_70                                        1 	(obj:0)
shell_i_$_74                                        1 	(obj:0)
shell_i_$_90                                        1 	(obj:0)
shell_i_$_165                                       1 	(obj:0)
shell_i_$_152                                       1 	(obj:0)
shell_i_$_131                                       1 	(obj:0)
shell_i_$_82                                        1 	(obj:0)
shell_i_$_153                                       1 	(obj:0)
shell_j_$_163                                       1 	(obj:0)
shell_i_$_166                                       1 	(obj:0)
shell_j_$_76                                        1 	(obj:0)
shell_i_$_132                                       1 	(obj:0)
shell_i_$_133                                       1 	(obj:0)
shell_i_$_135                                       1 	(obj:0)
shell_i_$_136                                       1 	(obj:0)
shell_i_$_150                                       1 	(obj:0)
shell_i_$_89                                        1 	(obj:0)
shell_j_$_73                                        1 	(obj:0)
shell_i_$_105                                       1 	(obj:0)
shell_i_$_72                                        1 	(obj:0)
shell_i_$_130                                       1 	(obj:0)
shell_i_$_147                                       1 	(obj:0)
shell_i_$_149                                       1 	(obj:0)
shell_i_$_187                                       1 	(obj:0)
shell_i_$_71                                        1 	(obj:0)
$_186_x                                            -4 	(obj:0)
$_179_x                                             8 	(obj:0)
$_168_x                                             8 	(obj:0)
$_168_y                                             4 	(obj:0)
$_168_z                                            17 	(obj:0)
$_134_x                                             8 	(obj:0)
$_134_y                                             2 	(obj:0)
$_180_x                                             8 	(obj:0)
$_180_z                                            15 	(obj:0)
$_134_z                                            24 	(obj:0)
$_179_y                                             4 	(obj:0)
$_84_x                                              8 	(obj:0)
$_84_z                                             21 	(obj:0)
$_179_z                                            21 	(obj:0)
$_167_x                                             8 	(obj:0)
$_169_x                                             8 	(obj:0)
$_169_y                                             6 	(obj:0)
$_169_z                                            18 	(obj:0)
$_167_y                                             5 	(obj:0)
$_167_z                                            18 	(obj:0)
$_70_x                                              8 	(obj:0)
$_70_y                                              6 	(obj:0)
$_70_z                                             24 	(obj:0)
$_186_y                                             8 	(obj:0)
$_186_z                                            23 	(obj:0)
$_74_x                                             -8 	(obj:0)
$_74_y                                              5 	(obj:0)
$_74_z                                             21 	(obj:0)
$_88_x                                              8 	(obj:0)
$_88_y                                              5 	(obj:0)
$_90_x                                             -8 	(obj:0)
$_90_y                                              4 	(obj:0)
$_90_z                                             20 	(obj:0)
$_88_z                                             21 	(obj:0)
$_79_x                                             -2 	(obj:0)
$_165_x                                             8 	(obj:0)
$_165_z                                            16 	(obj:0)
$_79_y                                              8 	(obj:0)
$_97_x                                             -2 	(obj:0)
$_152_x                                             8 	(obj:0)
$_152_y                                             4 	(obj:0)
$_152_z                                            18 	(obj:0)
$_97_y                                              8 	(obj:0)
$_97_z                                             24 	(obj:0)
$_131_x                                             8 	(obj:0)
$_131_y                                             4 	(obj:0)
$_131_z                                            24 	(obj:0)
$_79_z                                             23 	(obj:0)
$_181_z                                            19 	(obj:0)
$_82_x                                              8 	(obj:0)
$_82_y                                              1 	(obj:0)
$_82_z                                             24 	(obj:0)
$_148_x                                             8 	(obj:0)
$_148_y                                             4 	(obj:0)
$_153_x                                             8 	(obj:0)
$_153_y                                             4 	(obj:0)
$_153_z                                            20 	(obj:0)
$_148_z                                            22 	(obj:0)
$_181_x                                             8 	(obj:0)
$_163_x                                             6 	(obj:0)
$_163_y                                             8 	(obj:0)
$_163_z                                            21 	(obj:0)
$_91_x                                             -4 	(obj:0)
$_151_x                                             8 	(obj:0)
$_166_x                                             8 	(obj:0)
$_166_y                                             2 	(obj:0)
$_166_z                                            18 	(obj:0)
$_151_y                                             5 	(obj:0)
$_151_z                                            20 	(obj:0)
$_76_x                                             -8 	(obj:0)
$_76_y                                              8 	(obj:0)
$_76_z                                             25 	(obj:0)
$_91_y                                              8 	(obj:0)
$_91_z                                             20 	(obj:0)
$_132_x                                             8 	(obj:0)
$_132_y                                            -2 	(obj:0)
$_132_z                                            24 	(obj:0)
$_78_x                                             -4 	(obj:0)
$_78_y                                              8 	(obj:0)
$_133_x                                             8 	(obj:0)
$_133_y                                            -2 	(obj:0)
$_133_z                                            25 	(obj:0)
$_78_z                                             22 	(obj:0)
$_93_x                                             -8 	(obj:0)
$_135_x                                             8 	(obj:0)
$_135_y                                             2 	(obj:0)
$_135_z                                            20 	(obj:0)
$_93_y                                              4 	(obj:0)
$_75_x                                             -8 	(obj:0)
$_136_x                                             8 	(obj:0)
$_136_y                                             1 	(obj:0)
$_136_z                                            20 	(obj:0)
$_75_y                                              4 	(obj:0)
$_75_z                                             24 	(obj:0)
$_150_x                                             8 	(obj:0)
$_150_z                                            22 	(obj:0)
$_94_x                                             -8 	(obj:0)
$_94_y                                              8 	(obj:0)
$_89_x                                              8 	(obj:0)
$_89_y                                             -1 	(obj:0)
$_89_z                                             15 	(obj:0)
$_92_x                                             -8 	(obj:0)
$_92_y                                              5 	(obj:0)
$_73_x                                             -5 	(obj:0)
$_73_y                                              8 	(obj:0)
$_73_z                                             20 	(obj:0)
$_92_z                                             22 	(obj:0)
$_94_z                                             24 	(obj:0)
$_105_x                                             8 	(obj:0)
$_105_y                                             3 	(obj:0)
$_105_z                                            17 	(obj:0)
$_93_z                                             25 	(obj:0)
$_96_x                                             -5 	(obj:0)
$_72_x                                             -8 	(obj:0)
$_72_y                                              4 	(obj:0)
$_72_z                                             21 	(obj:0)
$_96_y                                              8 	(obj:0)
$_96_z                                             22 	(obj:0)
$_130_x                                             8 	(obj:0)
$_130_y                                             5 	(obj:0)
$_130_z                                            24 	(obj:0)
$_181_y                                             4 	(obj:0)
$_147_x                                             8 	(obj:0)
$_147_y                                             6 	(obj:0)
$_147_z                                            20 	(obj:0)
$_103_x                                             8 	(obj:0)
$_103_y                                             3 	(obj:0)
$_149_x                                             8 	(obj:0)
$_149_z                                            20 	(obj:0)
$_103_z                                            20 	(obj:0)
$_185_y                                             8 	(obj:0)
$_187_x                                            -8 	(obj:0)
$_187_y                                             6 	(obj:0)
$_187_z                                            22 	(obj:0)
$_185_z                                            23 	(obj:0)
$_164_x                                             6 	(obj:0)
$_71_x                                              8 	(obj:0)
$_71_y                                             -3 	(obj:0)
$_71_z                                             25 	(obj:0)
$_164_y                                             8 	(obj:0)
$_164_z                                            20 	(obj:0)
x278                                                2 	(obj:1)
x283                                                1 	(obj:1)
x284                                                1 	(obj:1)
x298                                                1 	(obj:1)
x302                                                2 	(obj:1)
x321                                                2 	(obj:1)
x322                                                1 	(obj:1)
x323                                                2 	(obj:1)
x353                                                1 	(obj:1)
x364                                                2 	(obj:1)
x375                                                2 	(obj:1)
x376                                                2 	(obj:1)
x389                                                2 	(obj:1)
x422                                                2 	(obj:1)
x426                                                2 	(obj:1)
x427                                                2 	(obj:1)
x434                                                2 	(obj:1)
x438                                                2 	(obj:1)
x439                                                2 	(obj:1)
x446                                                2 	(obj:1)
x448                                                2 	(obj:1)
x449                                                2 	(obj:1)
